experiment/data/hgs-res/Vrp-Set-E-n33/Vrp-Set-E-n33-hgs/0.hgs1.vrp
NAME : 0
COMMENT : CVRP Instance
TYPE : CVRP
DIMENSION : 33
EDGE_WEIGHT_TYPE : EUC_2D
CAPACITY : 8000
NODE_COORD_SECTION
1	292.0	495.0
2	298.0	427.0
3	309.0	445.0
4	307.0	464.0
5	336.0	475.0
6	320.0	439.0
7	321.0	437.0
8	322.0	437.0
9	323.0	433.0
10	324.0	433.0
11	323.0	429.0
12	314.0	435.0
13	311.0	442.0
14	304.0	427.0
15	293.0	421.0
16	296.0	418.0
17	261.0	384.0
18	297.0	410.0
19	315.0	407.0
20	314.0	406.0
21	321.0	391.0
22	321.0	398.0
23	314.0	394.0
24	313.0	378.0
25	304.0	382.0
26	295.0	402.0
27	283.0	406.0
28	279.0	399.0
29	271.0	401.0
30	264.0	414.0
31	277.0	439.0
32	290.0	434.0
33	319.0	433.0
DEMAND_SECTION
1	0
2	700
3	400
4	400
5	1200
6	40
7	80
8	2000
9	900
10	600
11	750
12	1500
13	150
14	250
15	1600
16	450
17	700
18	550
19	650
20	200
21	400
22	300
23	1300
24	700
25	750
26	1400
27	4000
28	600
29	1000
30	500
31	2500
32	1700
33	1100
DEPOT_SECTION
1
-1
EOF
