experiment/data/hgs-res/Vrp-Set-E-n33/Vrp-Set-E-n33-hgs/0.hgs1.tour
Route #1: 1 15 26 27 16 28 29
Route #2: 30 14 31
Route #3: 13 17 25 24 23 22 20 21 19 18 10 6 5 3
Route #4: 2 12 11 32 8 9 7 4
Cost 837.672
